c sat-color-log3 queen5x5.gb 5
c file created by SAT-TO-DIMACS Wed Jul  8 08:17:37 2015
c 4.4.3 -> 75
c 4.4.1 -> 74
c 4.4.2 -> 73
c 4.3.3 -> 72
c 4.3.1 -> 71
c 4.3.2 -> 70
c 4.2.3 -> 69
c 4.2.1 -> 68
c 4.2.2 -> 67
c 4.1.3 -> 66
c 4.1.1 -> 65
c 4.1.2 -> 64
c 4.0.3 -> 63
c 4.0.1 -> 62
c 4.0.2 -> 61
c 3.4.3 -> 60
c 3.4.1 -> 59
c 3.4.2 -> 58
c 3.3.3 -> 57
c 3.3.1 -> 56
c 3.3.2 -> 55
c 3.2.3 -> 54
c 3.2.1 -> 53
c 3.2.2 -> 52
c 3.1.3 -> 51
c 3.1.1 -> 50
c 3.1.2 -> 49
c 3.0.3 -> 48
c 3.0.1 -> 47
c 3.0.2 -> 46
c 2.4.3 -> 45
c 2.4.1 -> 44
c 2.4.2 -> 43
c 2.3.3 -> 42
c 2.3.1 -> 41
c 2.3.2 -> 40
c 2.2.3 -> 39
c 2.2.1 -> 38
c 2.2.2 -> 37
c 2.1.3 -> 36
c 2.1.1 -> 35
c 2.1.2 -> 34
c 2.0.3 -> 33
c 2.0.1 -> 32
c 2.0.2 -> 31
c 1.4.3 -> 30
c 1.4.1 -> 29
c 1.4.2 -> 28
c 1.3.3 -> 27
c 1.3.1 -> 26
c 1.3.2 -> 25
c 1.2.3 -> 24
c 1.2.1 -> 23
c 1.2.2 -> 22
c 1.1.3 -> 21
c 1.1.1 -> 20
c 1.1.2 -> 19
c 1.0.3 -> 18
c 1.0.1 -> 17
c 1.0.2 -> 16
c 0.4.3 -> 15
c 0.4.1 -> 14
c 0.4.2 -> 13
c 0.3.3 -> 12
c 0.3.1 -> 11
c 0.3.2 -> 10
c 0.2.3 -> 9
c 0.2.1 -> 8
c 0.2.2 -> 7
c 0.1.3 -> 6
c 0.0.3 -> 5
c 0.1.1 -> 4
c 0.0.1 -> 3
c 0.1.2 -> 2
c 0.0.2 -> 1
p cnf 75 800
 74 3 73 1 -75 -5 0
 74 3 73 1 75 5 0
 -74 -3 -73 -1 0
 -74 -3 73 1 0
 74 3 -73 -1 0
 74 14 73 13 -75 -15 0
 74 14 73 13 75 15 0
 -74 -14 -73 -13 0
 -74 -14 73 13 0
 74 14 -73 -13 0
 74 20 73 19 -75 -21 0
 74 20 73 19 75 21 0
 -74 -20 -73 -19 0
 -74 -20 73 19 0
 74 20 -73 -19 0
 74 29 73 28 -75 -30 0
 74 29 73 28 75 30 0
 -74 -29 -73 -28 0
 -74 -29 73 28 0
 74 29 -73 -28 0
 74 38 73 37 -75 -39 0
 74 38 73 37 75 39 0
 -74 -38 -73 -37 0
 -74 -38 73 37 0
 74 38 -73 -37 0
 74 44 73 43 -75 -45 0
 74 44 73 43 75 45 0
 -74 -44 -73 -43 0
 -74 -44 73 43 0
 74 44 -73 -43 0
 74 56 73 55 -75 -57 0
 74 56 73 55 75 57 0
 -74 -56 -73 -55 0
 -74 -56 73 55 0
 74 56 -73 -55 0
 74 59 73 58 -75 -60 0
 74 59 73 58 75 60 0
 -74 -59 -73 -58 0
 -74 -59 73 58 0
 74 59 -73 -58 0
 74 62 73 61 -75 -63 0
 74 62 73 61 75 63 0
 -74 -62 -73 -61 0
 -74 -62 73 61 0
 74 62 -73 -61 0
 74 65 73 64 -75 -66 0
 74 65 73 64 75 66 0
 -74 -65 -73 -64 0
 -74 -65 73 64 0
 74 65 -73 -64 0
 74 68 73 67 -75 -69 0
 74 68 73 67 75 69 0
 -74 -68 -73 -67 0
 -74 -68 73 67 0
 74 68 -73 -67 0
 74 71 73 70 -75 -72 0
 74 71 73 70 75 72 0
 -74 -71 -73 -70 0
 -74 -71 73 70 0
 74 71 -73 -70 0
 71 11 70 10 -72 -12 0
 71 11 70 10 72 12 0
 -71 -11 -70 -10 0
 -71 -11 70 10 0
 71 11 -70 -10 0
 71 17 70 16 -72 -18 0
 71 17 70 16 72 18 0
 -71 -17 -70 -16 0
 -71 -17 70 16 0
 71 17 -70 -16 0
 71 26 70 25 -72 -27 0
 71 26 70 25 72 27 0
 -71 -26 -70 -25 0
 -71 -26 70 25 0
 71 26 -70 -25 0
 71 35 70 34 -72 -36 0
 71 35 70 34 72 36 0
 -71 -35 -70 -34 0
 -71 -35 70 34 0
 71 35 -70 -34 0
 71 41 70 40 -72 -42 0
 71 41 70 40 72 42 0
 -71 -41 -70 -40 0
 -71 -41 70 40 0
 71 41 -70 -40 0
 71 53 70 52 -72 -54 0
 71 53 70 52 72 54 0
 -71 -53 -70 -52 0
 -71 -53 70 52 0
 71 53 -70 -52 0
 71 56 70 55 -72 -57 0
 71 56 70 55 72 57 0
 -71 -56 -70 -55 0
 -71 -56 70 55 0
 71 56 -70 -55 0
 71 59 70 58 -72 -60 0
 71 59 70 58 72 60 0
 -71 -59 -70 -58 0
 -71 -59 70 58 0
 71 59 -70 -58 0
 71 62 70 61 -72 -63 0
 71 62 70 61 72 63 0
 -71 -62 -70 -61 0
 -71 -62 70 61 0
 71 62 -70 -61 0
 71 65 70 64 -72 -66 0
 71 65 70 64 72 66 0
 -71 -65 -70 -64 0
 -71 -65 70 64 0
 71 65 -70 -64 0
 71 68 70 67 -72 -69 0
 71 68 70 67 72 69 0
 -71 -68 -70 -67 0
 -71 -68 70 67 0
 71 68 -70 -67 0
 68 8 67 7 -69 -9 0
 68 8 67 7 69 9 0
 -68 -8 -67 -7 0
 -68 -8 67 7 0
 68 8 -67 -7 0
 68 23 67 22 -69 -24 0
 68 23 67 22 69 24 0
 -68 -23 -67 -22 0
 -68 -23 67 22 0
 68 23 -67 -22 0
 68 32 67 31 -69 -33 0
 68 32 67 31 69 33 0
 -68 -32 -67 -31 0
 -68 -32 67 31 0
 68 32 -67 -31 0
 68 38 67 37 -69 -39 0
 68 38 67 37 69 39 0
 -68 -38 -67 -37 0
 -68 -38 67 37 0
 68 38 -67 -37 0
 68 44 67 43 -69 -45 0
 68 44 67 43 69 45 0
 -68 -44 -67 -43 0
 -68 -44 67 43 0
 68 44 -67 -43 0
 68 50 67 49 -69 -51 0
 68 50 67 49 69 51 0
 -68 -50 -67 -49 0
 -68 -50 67 49 0
 68 50 -67 -49 0
 68 53 67 52 -69 -54 0
 68 53 67 52 69 54 0
 -68 -53 -67 -52 0
 -68 -53 67 52 0
 68 53 -67 -52 0
 68 56 67 55 -69 -57 0
 68 56 67 55 69 57 0
 -68 -56 -67 -55 0
 -68 -56 67 55 0
 68 56 -67 -55 0
 68 62 67 61 -69 -63 0
 68 62 67 61 69 63 0
 -68 -62 -67 -61 0
 -68 -62 67 61 0
 68 62 -67 -61 0
 68 65 67 64 -69 -66 0
 68 65 67 64 69 66 0
 -68 -65 -67 -64 0
 -68 -65 67 64 0
 68 65 -67 -64 0
 65 4 64 2 -66 -6 0
 65 4 64 2 66 6 0
 -65 -4 -64 -2 0
 -65 -4 64 2 0
 65 4 -64 -2 0
 65 20 64 19 -66 -21 0
 65 20 64 19 66 21 0
 -65 -20 -64 -19 0
 -65 -20 64 19 0
 65 20 -64 -19 0
 65 29 64 28 -66 -30 0
 65 29 64 28 66 30 0
 -65 -29 -64 -28 0
 -65 -29 64 28 0
 65 29 -64 -28 0
 65 35 64 34 -66 -36 0
 65 35 64 34 66 36 0
 -65 -35 -64 -34 0
 -65 -35 64 34 0
 65 35 -64 -34 0
 65 41 64 40 -66 -42 0
 65 41 64 40 66 42 0
 -65 -41 -64 -40 0
 -65 -41 64 40 0
 65 41 -64 -40 0
 65 47 64 46 -66 -48 0
 65 47 64 46 66 48 0
 -65 -47 -64 -46 0
 -65 -47 64 46 0
 65 47 -64 -46 0
 65 50 64 49 -66 -51 0
 65 50 64 49 66 51 0
 -65 -50 -64 -49 0
 -65 -50 64 49 0
 65 50 -64 -49 0
 65 53 64 52 -66 -54 0
 65 53 64 52 66 54 0
 -65 -53 -64 -52 0
 -65 -53 64 52 0
 65 53 -64 -52 0
 65 62 64 61 -66 -63 0
 65 62 64 61 66 63 0
 -65 -62 -64 -61 0
 -65 -62 64 61 0
 65 62 -64 -61 0
 62 3 61 1 -63 -5 0
 62 3 61 1 63 5 0
 -62 -3 -61 -1 0
 -62 -3 61 1 0
 62 3 -61 -1 0
 62 14 61 13 -63 -15 0
 62 14 61 13 63 15 0
 -62 -14 -61 -13 0
 -62 -14 61 13 0
 62 14 -61 -13 0
 62 17 61 16 -63 -18 0
 62 17 61 16 63 18 0
 -62 -17 -61 -16 0
 -62 -17 61 16 0
 62 17 -61 -16 0
 62 26 61 25 -63 -27 0
 62 26 61 25 63 27 0
 -62 -26 -61 -25 0
 -62 -26 61 25 0
 62 26 -61 -25 0
 62 32 61 31 -63 -33 0
 62 32 61 31 63 33 0
 -62 -32 -61 -31 0
 -62 -32 61 31 0
 62 32 -61 -31 0
 62 38 61 37 -63 -39 0
 62 38 61 37 63 39 0
 -62 -38 -61 -37 0
 -62 -38 61 37 0
 62 38 -61 -37 0
 62 47 61 46 -63 -48 0
 62 47 61 46 63 48 0
 -62 -47 -61 -46 0
 -62 -47 61 46 0
 62 47 -61 -46 0
 62 50 61 49 -63 -51 0
 62 50 61 49 63 51 0
 -62 -50 -61 -49 0
 -62 -50 61 49 0
 62 50 -61 -49 0
 59 4 58 2 -60 -6 0
 59 4 58 2 60 6 0
 -59 -4 -58 -2 0
 -59 -4 58 2 0
 59 4 -58 -2 0
 59 14 58 13 -60 -15 0
 59 14 58 13 60 15 0
 -59 -14 -58 -13 0
 -59 -14 58 13 0
 59 14 -58 -13 0
 59 23 58 22 -60 -24 0
 59 23 58 22 60 24 0
 -59 -23 -58 -22 0
 -59 -23 58 22 0
 59 23 -58 -22 0
 59 29 58 28 -60 -30 0
 59 29 58 28 60 30 0
 -59 -29 -58 -28 0
 -59 -29 58 28 0
 59 29 -58 -28 0
 59 41 58 40 -60 -42 0
 59 41 58 40 60 42 0
 -59 -41 -58 -40 0
 -59 -41 58 40 0
 59 41 -58 -40 0
 59 44 58 43 -60 -45 0
 59 44 58 43 60 45 0
 -59 -44 -58 -43 0
 -59 -44 58 43 0
 59 44 -58 -43 0
 59 47 58 46 -60 -48 0
 59 47 58 46 60 48 0
 -59 -47 -58 -46 0
 -59 -47 58 46 0
 59 47 -58 -46 0
 59 50 58 49 -60 -51 0
 59 50 58 49 60 51 0
 -59 -50 -58 -49 0
 -59 -50 58 49 0
 59 50 -58 -49 0
 59 53 58 52 -60 -54 0
 59 53 58 52 60 54 0
 -59 -53 -58 -52 0
 -59 -53 58 52 0
 59 53 -58 -52 0
 59 56 58 55 -60 -57 0
 59 56 58 55 60 57 0
 -59 -56 -58 -55 0
 -59 -56 58 55 0
 59 56 -58 -55 0
 56 3 55 1 -57 -5 0
 56 3 55 1 57 5 0
 -56 -3 -55 -1 0
 -56 -3 55 1 0
 56 3 -55 -1 0
 56 11 55 10 -57 -12 0
 56 11 55 10 57 12 0
 -56 -11 -55 -10 0
 -56 -11 55 10 0
 56 11 -55 -10 0
 56 20 55 19 -57 -21 0
 56 20 55 19 57 21 0
 -56 -20 -55 -19 0
 -56 -20 55 19 0
 56 20 -55 -19 0
 56 26 55 25 -57 -27 0
 56 26 55 25 57 27 0
 -56 -26 -55 -25 0
 -56 -26 55 25 0
 56 26 -55 -25 0
 56 38 55 37 -57 -39 0
 56 38 55 37 57 39 0
 -56 -38 -55 -37 0
 -56 -38 55 37 0
 56 38 -55 -37 0
 56 41 55 40 -57 -42 0
 56 41 55 40 57 42 0
 -56 -41 -55 -40 0
 -56 -41 55 40 0
 56 41 -55 -40 0
 56 44 55 43 -57 -45 0
 56 44 55 43 57 45 0
 -56 -44 -55 -43 0
 -56 -44 55 43 0
 56 44 -55 -43 0
 56 47 55 46 -57 -48 0
 56 47 55 46 57 48 0
 -56 -47 -55 -46 0
 -56 -47 55 46 0
 56 47 -55 -46 0
 56 50 55 49 -57 -51 0
 56 50 55 49 57 51 0
 -56 -50 -55 -49 0
 -56 -50 55 49 0
 56 50 -55 -49 0
 56 53 55 52 -57 -54 0
 56 53 55 52 57 54 0
 -56 -53 -55 -52 0
 -56 -53 55 52 0
 56 53 -55 -52 0
 53 8 52 7 -54 -9 0
 53 8 52 7 54 9 0
 -53 -8 -52 -7 0
 -53 -8 52 7 0
 53 8 -52 -7 0
 53 17 52 16 -54 -18 0
 53 17 52 16 54 18 0
 -53 -17 -52 -16 0
 -53 -17 52 16 0
 53 17 -52 -16 0
 53 23 52 22 -54 -24 0
 53 23 52 22 54 24 0
 -53 -23 -52 -22 0
 -53 -23 52 22 0
 53 23 -52 -22 0
 53 29 52 28 -54 -30 0
 53 29 52 28 54 30 0
 -53 -29 -52 -28 0
 -53 -29 52 28 0
 53 29 -52 -28 0
 53 35 52 34 -54 -36 0
 53 35 52 34 54 36 0
 -53 -35 -52 -34 0
 -53 -35 52 34 0
 53 35 -52 -34 0
 53 38 52 37 -54 -39 0
 53 38 52 37 54 39 0
 -53 -38 -52 -37 0
 -53 -38 52 37 0
 53 38 -52 -37 0
 53 41 52 40 -54 -42 0
 53 41 52 40 54 42 0
 -53 -41 -52 -40 0
 -53 -41 52 40 0
 53 41 -52 -40 0
 53 47 52 46 -54 -48 0
 53 47 52 46 54 48 0
 -53 -47 -52 -46 0
 -53 -47 52 46 0
 53 47 -52 -46 0
 53 50 52 49 -54 -51 0
 53 50 52 49 54 51 0
 -53 -50 -52 -49 0
 -53 -50 52 49 0
 53 50 -52 -49 0
 50 4 49 2 -51 -6 0
 50 4 49 2 51 6 0
 -50 -4 -49 -2 0
 -50 -4 49 2 0
 50 4 -49 -2 0
 50 14 49 13 -51 -15 0
 50 14 49 13 51 15 0
 -50 -14 -49 -13 0
 -50 -14 49 13 0
 50 14 -49 -13 0
 50 20 49 19 -51 -21 0
 50 20 49 19 51 21 0
 -50 -20 -49 -19 0
 -50 -20 49 19 0
 50 20 -49 -19 0
 50 26 49 25 -51 -27 0
 50 26 49 25 51 27 0
 -50 -26 -49 -25 0
 -50 -26 49 25 0
 50 26 -49 -25 0
 50 32 49 31 -51 -33 0
 50 32 49 31 51 33 0
 -50 -32 -49 -31 0
 -50 -32 49 31 0
 50 32 -49 -31 0
 50 35 49 34 -51 -36 0
 50 35 49 34 51 36 0
 -50 -35 -49 -34 0
 -50 -35 49 34 0
 50 35 -49 -34 0
 50 38 49 37 -51 -39 0
 50 38 49 37 51 39 0
 -50 -38 -49 -37 0
 -50 -38 49 37 0
 50 38 -49 -37 0
 50 47 49 46 -51 -48 0
 50 47 49 46 51 48 0
 -50 -47 -49 -46 0
 -50 -47 49 46 0
 50 47 -49 -46 0
 47 3 46 1 -48 -5 0
 47 3 46 1 48 5 0
 -47 -3 -46 -1 0
 -47 -3 46 1 0
 47 3 -46 -1 0
 47 11 46 10 -48 -12 0
 47 11 46 10 48 12 0
 -47 -11 -46 -10 0
 -47 -11 46 10 0
 47 11 -46 -10 0
 47 17 46 16 -48 -18 0
 47 17 46 16 48 18 0
 -47 -17 -46 -16 0
 -47 -17 46 16 0
 47 17 -46 -16 0
 47 23 46 22 -48 -24 0
 47 23 46 22 48 24 0
 -47 -23 -46 -22 0
 -47 -23 46 22 0
 47 23 -46 -22 0
 47 32 46 31 -48 -33 0
 47 32 46 31 48 33 0
 -47 -32 -46 -31 0
 -47 -32 46 31 0
 47 32 -46 -31 0
 47 35 46 34 -48 -36 0
 47 35 46 34 48 36 0
 -47 -35 -46 -34 0
 -47 -35 46 34 0
 47 35 -46 -34 0
 44 8 43 7 -45 -9 0
 44 8 43 7 45 9 0
 -44 -8 -43 -7 0
 -44 -8 43 7 0
 44 8 -43 -7 0
 44 14 43 13 -45 -15 0
 44 14 43 13 45 15 0
 -44 -14 -43 -13 0
 -44 -14 43 13 0
 44 14 -43 -13 0
 44 26 43 25 -45 -27 0
 44 26 43 25 45 27 0
 -44 -26 -43 -25 0
 -44 -26 43 25 0
 44 26 -43 -25 0
 44 29 43 28 -45 -30 0
 44 29 43 28 45 30 0
 -44 -29 -43 -28 0
 -44 -29 43 28 0
 44 29 -43 -28 0
 44 32 43 31 -45 -33 0
 44 32 43 31 45 33 0
 -44 -32 -43 -31 0
 -44 -32 43 31 0
 44 32 -43 -31 0
 44 35 43 34 -45 -36 0
 44 35 43 34 45 36 0
 -44 -35 -43 -34 0
 -44 -35 43 34 0
 44 35 -43 -34 0
 44 38 43 37 -45 -39 0
 44 38 43 37 45 39 0
 -44 -38 -43 -37 0
 -44 -38 43 37 0
 44 38 -43 -37 0
 44 41 43 40 -45 -42 0
 44 41 43 40 45 42 0
 -44 -41 -43 -40 0
 -44 -41 43 40 0
 44 41 -43 -40 0
 41 4 40 2 -42 -6 0
 41 4 40 2 42 6 0
 -41 -4 -40 -2 0
 -41 -4 40 2 0
 41 4 -40 -2 0
 41 11 40 10 -42 -12 0
 41 11 40 10 42 12 0
 -41 -11 -40 -10 0
 -41 -11 40 10 0
 41 11 -40 -10 0
 41 23 40 22 -42 -24 0
 41 23 40 22 42 24 0
 -41 -23 -40 -22 0
 -41 -23 40 22 0
 41 23 -40 -22 0
 41 26 40 25 -42 -27 0
 41 26 40 25 42 27 0
 -41 -26 -40 -25 0
 -41 -26 40 25 0
 41 26 -40 -25 0
 41 29 40 28 -42 -30 0
 41 29 40 28 42 30 0
 -41 -29 -40 -28 0
 -41 -29 40 28 0
 41 29 -40 -28 0
 41 32 40 31 -42 -33 0
 41 32 40 31 42 33 0
 -41 -32 -40 -31 0
 -41 -32 40 31 0
 41 32 -40 -31 0
 41 35 40 34 -42 -36 0
 41 35 40 34 42 36 0
 -41 -35 -40 -34 0
 -41 -35 40 34 0
 41 35 -40 -34 0
 41 38 40 37 -42 -39 0
 41 38 40 37 42 39 0
 -41 -38 -40 -37 0
 -41 -38 40 37 0
 41 38 -40 -37 0
 38 3 37 1 -39 -5 0
 38 3 37 1 39 5 0
 -38 -3 -37 -1 0
 -38 -3 37 1 0
 38 3 -37 -1 0
 38 8 37 7 -39 -9 0
 38 8 37 7 39 9 0
 -38 -8 -37 -7 0
 -38 -8 37 7 0
 38 8 -37 -7 0
 38 14 37 13 -39 -15 0
 38 14 37 13 39 15 0
 -38 -14 -37 -13 0
 -38 -14 37 13 0
 38 14 -37 -13 0
 38 20 37 19 -39 -21 0
 38 20 37 19 39 21 0
 -38 -20 -37 -19 0
 -38 -20 37 19 0
 38 20 -37 -19 0
 38 23 37 22 -39 -24 0
 38 23 37 22 39 24 0
 -38 -23 -37 -22 0
 -38 -23 37 22 0
 38 23 -37 -22 0
 38 26 37 25 -39 -27 0
 38 26 37 25 39 27 0
 -38 -26 -37 -25 0
 -38 -26 37 25 0
 38 26 -37 -25 0
 38 32 37 31 -39 -33 0
 38 32 37 31 39 33 0
 -38 -32 -37 -31 0
 -38 -32 37 31 0
 38 32 -37 -31 0
 38 35 37 34 -39 -36 0
 38 35 37 34 39 36 0
 -38 -35 -37 -34 0
 -38 -35 37 34 0
 38 35 -37 -34 0
 35 4 34 2 -36 -6 0
 35 4 34 2 36 6 0
 -35 -4 -34 -2 0
 -35 -4 34 2 0
 35 4 -34 -2 0
 35 11 34 10 -36 -12 0
 35 11 34 10 36 12 0
 -35 -11 -34 -10 0
 -35 -11 34 10 0
 35 11 -34 -10 0
 35 17 34 16 -36 -18 0
 35 17 34 16 36 18 0
 -35 -17 -34 -16 0
 -35 -17 34 16 0
 35 17 -34 -16 0
 35 20 34 19 -36 -21 0
 35 20 34 19 36 21 0
 -35 -20 -34 -19 0
 -35 -20 34 19 0
 35 20 -34 -19 0
 35 23 34 22 -36 -24 0
 35 23 34 22 36 24 0
 -35 -23 -34 -22 0
 -35 -23 34 22 0
 35 23 -34 -22 0
 35 32 34 31 -36 -33 0
 35 32 34 31 36 33 0
 -35 -32 -34 -31 0
 -35 -32 34 31 0
 35 32 -34 -31 0
 32 3 31 1 -33 -5 0
 32 3 31 1 33 5 0
 -32 -3 -31 -1 0
 -32 -3 31 1 0
 32 3 -31 -1 0
 32 8 31 7 -33 -9 0
 32 8 31 7 33 9 0
 -32 -8 -31 -7 0
 -32 -8 31 7 0
 32 8 -31 -7 0
 32 17 31 16 -33 -18 0
 32 17 31 16 33 18 0
 -32 -17 -31 -16 0
 -32 -17 31 16 0
 32 17 -31 -16 0
 32 20 31 19 -33 -21 0
 32 20 31 19 33 21 0
 -32 -20 -31 -19 0
 -32 -20 31 19 0
 32 20 -31 -19 0
 29 11 28 10 -30 -12 0
 29 11 28 10 30 12 0
 -29 -11 -28 -10 0
 -29 -11 28 10 0
 29 11 -28 -10 0
 29 14 28 13 -30 -15 0
 29 14 28 13 30 15 0
 -29 -14 -28 -13 0
 -29 -14 28 13 0
 29 14 -28 -13 0
 29 17 28 16 -30 -18 0
 29 17 28 16 30 18 0
 -29 -17 -28 -16 0
 -29 -17 28 16 0
 29 17 -28 -16 0
 29 20 28 19 -30 -21 0
 29 20 28 19 30 21 0
 -29 -20 -28 -19 0
 -29 -20 28 19 0
 29 20 -28 -19 0
 29 23 28 22 -30 -24 0
 29 23 28 22 30 24 0
 -29 -23 -28 -22 0
 -29 -23 28 22 0
 29 23 -28 -22 0
 29 26 28 25 -30 -27 0
 29 26 28 25 30 27 0
 -29 -26 -28 -25 0
 -29 -26 28 25 0
 29 26 -28 -25 0
 26 8 25 7 -27 -9 0
 26 8 25 7 27 9 0
 -26 -8 -25 -7 0
 -26 -8 25 7 0
 26 8 -25 -7 0
 26 11 25 10 -27 -12 0
 26 11 25 10 27 12 0
 -26 -11 -25 -10 0
 -26 -11 25 10 0
 26 11 -25 -10 0
 26 14 25 13 -27 -15 0
 26 14 25 13 27 15 0
 -26 -14 -25 -13 0
 -26 -14 25 13 0
 26 14 -25 -13 0
 26 17 25 16 -27 -18 0
 26 17 25 16 27 18 0
 -26 -17 -25 -16 0
 -26 -17 25 16 0
 26 17 -25 -16 0
 26 20 25 19 -27 -21 0
 26 20 25 19 27 21 0
 -26 -20 -25 -19 0
 -26 -20 25 19 0
 26 20 -25 -19 0
 26 23 25 22 -27 -24 0
 26 23 25 22 27 24 0
 -26 -23 -25 -22 0
 -26 -23 25 22 0
 26 23 -25 -22 0
 23 4 22 2 -24 -6 0
 23 4 22 2 24 6 0
 -23 -4 -22 -2 0
 -23 -4 22 2 0
 23 4 -22 -2 0
 23 8 22 7 -24 -9 0
 23 8 22 7 24 9 0
 -23 -8 -22 -7 0
 -23 -8 22 7 0
 23 8 -22 -7 0
 23 11 22 10 -24 -12 0
 23 11 22 10 24 12 0
 -23 -11 -22 -10 0
 -23 -11 22 10 0
 23 11 -22 -10 0
 23 17 22 16 -24 -18 0
 23 17 22 16 24 18 0
 -23 -17 -22 -16 0
 -23 -17 22 16 0
 23 17 -22 -16 0
 23 20 22 19 -24 -21 0
 23 20 22 19 24 21 0
 -23 -20 -22 -19 0
 -23 -20 22 19 0
 23 20 -22 -19 0
 20 3 19 1 -21 -5 0
 20 3 19 1 21 5 0
 -20 -3 -19 -1 0
 -20 -3 19 1 0
 20 3 -19 -1 0
 20 4 19 2 -21 -6 0
 20 4 19 2 21 6 0
 -20 -4 -19 -2 0
 -20 -4 19 2 0
 20 4 -19 -2 0
 20 8 19 7 -21 -9 0
 20 8 19 7 21 9 0
 -20 -8 -19 -7 0
 -20 -8 19 7 0
 20 8 -19 -7 0
 20 17 19 16 -21 -18 0
 20 17 19 16 21 18 0
 -20 -17 -19 -16 0
 -20 -17 19 16 0
 20 17 -19 -16 0
 17 3 16 1 -18 -5 0
 17 3 16 1 18 5 0
 -17 -3 -16 -1 0
 -17 -3 16 1 0
 17 3 -16 -1 0
 17 4 16 2 -18 -6 0
 17 4 16 2 18 6 0
 -17 -4 -16 -2 0
 -17 -4 16 2 0
 17 4 -16 -2 0
 14 3 13 1 -15 -5 0
 14 3 13 1 15 5 0
 -14 -3 -13 -1 0
 -14 -3 13 1 0
 14 3 -13 -1 0
 14 4 13 2 -15 -6 0
 14 4 13 2 15 6 0
 -14 -4 -13 -2 0
 -14 -4 13 2 0
 14 4 -13 -2 0
 14 8 13 7 -15 -9 0
 14 8 13 7 15 9 0
 -14 -8 -13 -7 0
 -14 -8 13 7 0
 14 8 -13 -7 0
 14 11 13 10 -15 -12 0
 14 11 13 10 15 12 0
 -14 -11 -13 -10 0
 -14 -11 13 10 0
 14 11 -13 -10 0
 11 3 10 1 -12 -5 0
 11 3 10 1 12 5 0
 -11 -3 -10 -1 0
 -11 -3 10 1 0
 11 3 -10 -1 0
 11 4 10 2 -12 -6 0
 11 4 10 2 12 6 0
 -11 -4 -10 -2 0
 -11 -4 10 2 0
 11 4 -10 -2 0
 11 8 10 7 -12 -9 0
 11 8 10 7 12 9 0
 -11 -8 -10 -7 0
 -11 -8 10 7 0
 11 8 -10 -7 0
 8 3 7 1 -9 -5 0
 8 3 7 1 9 5 0
 -8 -3 -7 -1 0
 -8 -3 7 1 0
 8 3 -7 -1 0
 8 4 7 2 -9 -6 0
 8 4 7 2 9 6 0
 -8 -4 -7 -2 0
 -8 -4 7 2 0
 8 4 -7 -2 0
 4 3 2 1 -6 -5 0
 4 3 2 1 6 5 0
 -4 -3 -2 -1 0
 -4 -3 2 1 0
 4 3 -2 -1 0
